\ This file has been generated by DOcplex
\ ENCODING=ISO-8859-1
\Problem name: random_problem.lp

Minimize
 obj: 7 x0 + 7 x1 + 4 x2 + 4 x3 + 10 x5 - 4 x6 - 10 x7 - 3 x8 + 3 x9 + 5 x10
      - 10 x11 + 9 x12 + 10 x13 - x14 - 3 x15 + [ 20 x0*x3 - 6 x0*x7 - 14 x0*x9
      - 6 x0*x12 - 18 x0*x14 + 16 x1*x4 + 2 x1*x9 + 14 x1*x10 + 14 x1*x11
      - 20 x1*x14 - 4 x2*x8 - 14 x2*x11 - 2 x2*x12 - 20 x2*x14 + 4 x2*x15
      - 18 x3*x4 + 14 x3*x9 + 20 x3*x10 + 12 x3*x12 - 8 x4*x5 + 18 x4*x7
      + 8 x4*x13 + 16 x5*x6 - 16 x5*x11 + 18 x5*x13 + 4 x5*x15 - 4 x6*x9
      + 2 x6*x10 + 8 x6*x11 + 2 x6*x14 - 18 x7*x8 - 4 x7*x10 - 18 x7*x13
      + 10 x8*x9 + 2 x8*x14 - 12 x8*x15 + 14 x10*x12 - 8 x11*x13 - 16 x12*x15
      + 12 x13*x15 ]/2
Subject To
 c0: - x0 + 2 x1 + 2 x4 - 2 x11 - 2 x15 = 1
 c1: - 2 x2 + 2 x3 - x6 - 2 x7 + x11 = -1
 c2: - x0 - 2 x2 - x3 + x12 + x15 = -1

Bounds
 0 <= x0 <= 1
 0 <= x1 <= 1
 0 <= x2 <= 1
 0 <= x3 <= 1
 0 <= x4 <= 1
 0 <= x5 <= 1
 0 <= x6 <= 1
 0 <= x7 <= 1
 0 <= x8 <= 1
 0 <= x9 <= 1
 0 <= x10 <= 1
 0 <= x11 <= 1
 0 <= x12 <= 1
 0 <= x13 <= 1
 0 <= x14 <= 1
 0 <= x15 <= 1

Binaries
 x0 x1 x2 x3 x4 x5 x6 x7 x8 x9 x10 x11 x12 x13 x14 x15
End
